50
20211

294 941
559 243
162 340
642 467
583 791
294 683
64 168
180 628
397 572
411 825
243 455
703 606
171 199
9 742
562 239
94 32
694 427
320 931
38 18
581 909
828 114
28 407
265 912
673 667
385 550
191 831
156 565
514 988
941 923
549 677
912 224
829 775
527 595
429 697
268 340
671 435
138 4
204 510
735 589
431 692
727 457
872 868
182 3
225 653
938 879
845 565
458 570
157 559
689 164
465 28
